
n_res = 6;
rcap = [74, 78, 89, 82, 830, 785];
rtype = [1, 1, 1, 1, 2, 2];
n_tasks = 50;
modes =  [{1, 2, 3}, {4, 5, 6}, {7, 8, 9}, {10, 11, 12}, {13, 14, 15}, {16, 17, 18}, {19, 20, 21}, {22, 23, 24}, {25, 26, 27}, {28, 29, 30}, {31, 32, 33}, {34, 35, 36}, {37, 38, 39}, {40, 41, 42}, {43, 44, 45}, {46, 47, 48}, {49, 50, 51}, {52, 53, 54}, {55, 56, 57}, {58, 59, 60}, {61, 62, 63}, {64, 65, 66}, {67, 68, 69}, {70, 71, 72}, {73, 74, 75}, {76, 77, 78}, {79, 80, 81}, {82, 83, 84}, {85, 86, 87}, {88, 89, 90}, {91, 92, 93}, {94, 95, 96}, {97, 98, 99}, {100, 101, 102}, {103, 104, 105}, {106, 107, 108}, {109, 110, 111}, {112, 113, 114}, {115, 116, 117}, {118, 119, 120}, {121, 122, 123}, {124, 125, 126}, {127, 128, 129}, {130, 131, 132}, {133, 134, 135}, {136, 137, 138}, {139, 140, 141}, {142, 143, 144}, {145, 146, 147}, {148, 149, 150}];
succ =  [{8, 6, 4}, {6, 4}, {6, 4}, {15, 13, 12, 11, 10, 9}, {14, 12, 11, 8}, {15, 14, 13, 12, 10}, {17, 14, 12, 10}, {21, 18, 15, 13}, {23, 21, 20, 19, 14}, {24, 23, 21, 18, 16}, {28, 21, 17, 16}, {28, 27, 25, 23, 21, 19}, {27, 25, 23, 19, 17}, {27, 25, 24, 18}, {27, 24, 23, 20}, {27, 20}, {36, 34, 29, 26, 24}, {28, 26, 22}, {36, 34, 29, 24}, {26, 25, 22}, {36, 26, 22}, {39, 37, 35, 34, 32, 31, 29}, {39, 38, 37, 36, 32, 31, 29}, {41, 37, 35, 32, 31, 30}, {39, 37, 34, 32, 31, 29}, {41, 39, 38, 37, 31}, {38, 37, 36, 31}, {38, 36, 32}, {41, 33}, {39, 33}, {33}, {33}, {50, 49, 48, 45, 44, 40}, {45, 44, 42, 38}, {40, 38}, {50, 47, 41}, {44, 43, 42}, {49, 48, 43}, {47, 44, 43}, {43, 42}, {44, 43}, {47, 46}, {46}, {46}, {47}, {}, {}, {}, {}, {}];
n_opt = 150;
dur = [7, 8, 16, 5, 22, 23, 1, 10, 29, 3, 7, 29, 2, 15, 24, 3, 14, 20, 4, 16, 21, 3, 8, 22, 14, 23, 24, 1, 20, 30, 3, 17, 18, 6, 11, 21, 12, 14, 18, 8, 14, 15, 6, 20, 30, 12, 14, 15, 2, 6, 8, 5, 6, 29, 6, 12, 30, 5, 9, 23, 8, 16, 28, 5, 13, 26, 13, 26, 27, 1, 21, 24, 14, 21, 28, 5, 11, 24, 4, 14, 22, 2, 5, 22, 13, 17, 22, 6, 16, 30, 10, 15, 19, 24, 25, 30, 14, 15, 29, 14, 24, 25, 2, 17, 30, 17, 24, 29, 13, 15, 17, 22, 24, 26, 12, 15, 16, 13, 20, 23, 8, 17, 28, 8, 11, 17, 24, 25, 26, 10, 15, 29, 20, 26, 27, 10, 17, 27, 16, 20, 23, 9, 11, 23, 8, 19, 21, 2, 16, 30];
rreq = [|17, 14, 2, 17, 15, 9, 17, 10, 6, 19, 18, 18, 23, 23, 22, 22, 10, 6, 9, 5, 5, 24, 18, 3, 17, 15, 6, 19, 12, 7, 19, 15, 11, 4, 3, 3, 26, 22, 16, 22, 19, 17, 14, 9, 9, 14, 11, 8, 26, 24, 19, 14, 11, 9, 15, 15, 14, 24, 22, 21, 23, 20, 19, 12, 11, 10, 27, 22, 18, 23, 17, 13, 17, 14, 12, 28, 28, 28, 28, 24, 23, 23, 20, 17, 3, 2, 2, 25, 20, 12, 17, 16, 16, 10, 10, 10, 27, 17, 10, 27, 24, 16, 9, 6, 4, 25, 20, 11, 7, 6, 6, 19, 18, 17, 22, 19, 14, 21, 16, 14, 28, 28, 28, 30, 29, 29, 11, 5, 1, 17, 17, 11, 13, 12, 12, 13, 8, 5, 14, 11, 10, 25, 18, 1, 16, 15, 12, 26, 25, 24
 |25, 25, 25, 20, 20, 17, 24, 20, 15, 23, 20, 18, 28, 26, 25, 5, 4, 4, 30, 17, 14, 9, 8, 5, 17, 16, 11, 8, 8, 8, 28, 23, 15, 23, 20, 19, 3, 3, 3, 13, 12, 9, 28, 27, 26, 25, 19, 16, 3, 3, 3, 9, 7, 4, 19, 14, 4, 29, 21, 11, 22, 20, 18, 17, 13, 10, 21, 20, 18, 13, 7, 7, 25, 22, 20, 24, 22, 22, 25, 22, 20, 18, 10, 8, 25, 25, 24, 19, 15, 9, 27, 21, 14, 6, 6, 6, 17, 11, 10, 22, 10, 9, 26, 14, 11, 22, 22, 21, 13, 6, 5, 25, 22, 13, 6, 4, 2, 28, 22, 20, 24, 18, 16, 20, 16, 13, 24, 24, 22, 14, 12, 10, 26, 25, 24, 10, 9, 8, 15, 15, 15, 25, 22, 22, 21, 14, 13, 11, 8, 6
 |11, 10, 8, 10, 7, 4, 24, 20, 14, 19, 16, 15, 25, 24, 23, 4, 4, 4, 23, 19, 16, 23, 12, 6, 20, 18, 14, 13, 8, 5, 21, 17, 16, 28, 25, 24, 18, 16, 15, 21, 18, 15, 27, 20, 18, 20, 12, 8, 15, 12, 11, 12, 5, 2, 5, 4, 4, 19, 14, 6, 24, 20, 19, 15, 8, 8, 26, 18, 3, 19, 11, 6, 16, 16, 15, 26, 23, 21, 24, 23, 21, 25, 19, 19, 19, 19, 17, 24, 20, 15, 2, 2, 2, 25, 25, 25, 24, 19, 9, 20, 18, 16, 23, 19, 7, 28, 13, 1, 24, 16, 10, 22, 12, 6, 30, 29, 29, 23, 19, 15, 20, 17, 9, 25, 13, 2, 29, 26, 20, 28, 28, 28, 22, 19, 15, 18, 11, 9, 20, 11, 10, 13, 12, 8, 24, 24, 22, 28, 26, 23
 |15, 14, 13, 22, 16, 6, 21, 18, 8, 26, 23, 20, 28, 19, 17, 25, 25, 25, 17, 14, 10, 20, 19, 13, 25, 16, 13, 23, 21, 17, 14, 14, 14, 14, 11, 5, 20, 18, 10, 24, 23, 22, 21, 17, 12, 16, 15, 14, 23, 18, 9, 27, 21, 20, 26, 19, 15, 21, 21, 21, 10, 9, 9, 21, 21, 19, 15, 15, 11, 29, 18, 14, 22, 15, 6, 30, 28, 28, 26, 22, 14, 20, 17, 13, 16, 7, 5, 14, 13, 5, 10, 6, 4, 11, 11, 9, 21, 15, 5, 20, 17, 12, 27, 25, 25, 18, 13, 10, 23, 19, 7, 5, 3, 2, 17, 12, 10, 20, 12, 2, 23, 22, 20, 28, 28, 26, 22, 21, 21, 20, 13, 7, 23, 23, 23, 17, 13, 11, 13, 9, 9, 29, 23, 17, 12, 8, 7, 30, 27, 23
 |11, 8, 6, 22, 22, 22, 24, 22, 11, 20, 19, 10, 11, 5, 4, 26, 22, 9, 9, 9, 9, 19, 14, 9, 10, 7, 6, 10, 9, 8, 21, 21, 21, 19, 13, 7, 24, 22, 17, 9, 5, 4, 22, 21, 21, 25, 22, 18, 19, 10, 5, 27, 27, 27, 24, 23, 22, 20, 15, 11, 10, 8, 8, 23, 18, 16, 2, 2, 1, 21, 13, 4, 21, 13, 12, 13, 12, 5, 25, 20, 11, 21, 20, 19, 27, 24, 17, 21, 16, 13, 6, 4, 4, 23, 15, 4, 16, 15, 14, 20, 14, 8, 8, 5, 5, 23, 22, 22, 22, 10, 6, 7, 3, 3, 4, 3, 2, 11, 6, 6, 30, 16, 8, 20, 13, 9, 21, 14, 8, 28, 20, 9, 29, 27, 26, 27, 21, 18, 25, 23, 23, 10, 9, 5, 11, 8, 7, 26, 16, 12
 |20, 20, 20, 10, 8, 7, 21, 15, 8, 19, 19, 18, 7, 7, 5, 12, 8, 8, 18, 12, 12, 22, 10, 6, 21, 17, 4, 7, 6, 6, 23, 21, 14, 10, 8, 6, 26, 23, 19, 20, 15, 7, 23, 19, 15, 24, 21, 19, 4, 2, 2, 24, 16, 9, 9, 9, 9, 21, 13, 8, 16, 15, 14, 20, 20, 20, 15, 10, 6, 13, 9, 4, 18, 16, 14, 18, 12, 9, 20, 19, 18, 12, 12, 9, 22, 19, 19, 27, 21, 15, 22, 15, 11, 8, 6, 2, 16, 15, 14, 16, 11, 6, 9, 8, 7, 6, 6, 5, 24, 22, 21, 9, 8, 8, 18, 18, 7, 19, 18, 18, 18, 17, 11, 19, 11, 4, 18, 10, 6, 11, 8, 5, 19, 17, 15, 20, 17, 9, 22, 19, 17, 23, 13, 4, 29, 25, 24, 20, 20, 15|];